%
% Generated Sudoku 16x16
% Density approximation: 0.50
%
x = array2d(1..n, 1..n, [
   _,  12,   _,   _,   _,   _,  11,  14,  10,   _,   _,   7,   _,   2,   4,   3,
   9,   _,   _,   _,  13,   _,  15,   _,   _,   2,  12,  14,  16,   _,   8,   _,
  13,   3,  14,   _,   6,   2,   4,   _,   _,  15,  11,  16,   _,   _,   _,   5,
   _,   _,  16,   _,  10,   7,  12,   _,   _,   3,   _,   5,  15,   _,   1,   _,
  10,  16,   _,   _,  15,   _,   6,   1,   _,   _,   _,   _,   2,   3,   _,   _,
   _,  14,   _,  12,   _,   _,   _,   5,  13,   _,   _,   _,   _,   8,  10,   _,
   _,   _,   _,   5,   _,   _,   _,  10,   2,   6,   _,   _,   1,   _,   _,   _,
   _,   1,   _,   6,   2,   _,   8,  13,   7,  10,   5,  12,   9,   _,  16,  14,
   5,   4,   _,  14,   _,   _,   _,  15,   _,  13,   _,   6,   3,   _,   2,  11,
   _,  15,   _,   _,   9,   _,  14,   _,   _,   8,   _,   _,   5,   4,   _,   _,
   _,   _,   _,   _,   4,  10,   _,   _,   _,   5,  14,   9,   7,   _,   6,   _,
   _,   _,   _,   _,   _,  13,   5,   _,  16,   _,   _,   2,  14,   9,  15,   _,
  16,  10,   _,   _,   1,   5,   _,   7,   8,   _,   6,   _,   _,   _,   3,   _,
   _,   7,   _,  11,  12,   _,   9,   _,   5,   4,  15,   _,   _,   _,  14,   _,
   _,   _,  12,   3,  14,   _,   _,   4,   9,  16,   7,   _,   _,   _,   _,   2,
  14,  13,   _,   9,   _,  11,   _,   _,   3,  12,   _,   1,   4,   5,   7,  15
]);

n = 16;
